牛客/2019牛客暑期多校训练营/数据/9_D_Knapsack Cryptosystem/12.in
36 1661713709844585
152495994334965 112426328295829 52321829237125 4469493376410 33443313148798 83608282871995 124990040190926 49787524534726 101354463394909 96154061007385 75238592234270 15805362360094 103248782236665 111135097596925 87742261280372 121767398968722 88675728494275 117143745603380 69823243613599 49951689944339 146645406817375 45175211866498 24523093105380 17212721412550 52134435877092 111147247579321 167784143576310 123813892695158 121466877953695 12725212955849 135866526050696 25236532026930 110724812084546 95701157705492 37504489557144 50087082548920
